NAME : rnd47_50.tsp
TYPE : TSP
DIMENSION : 50
EDGE_WEIGHT_TYPE : EUC_2D
NODE_COORD_SECTION
1 80 184
2 549 372
3 521 446
4 815 421
5 160 605
6 887 131
7 491 621
8 413 794
9 377 41
10 388 472
11 711 547
12 860 876
13 775 57
14 340 266
15 215 512
16 876 451
17 945 127
18 586 693
19 513 74
20 428 384
21 766 244
22 581 533
23 8 879
24 356 522
25 359 906
26 513 405
27 748 468
28 347 193
29 355 539
30 643 719
31 103 760
32 226 420
33 935 591
34 940 142
35 597 82
36 278 666
37 392 917
38 578 40
39 192 289
40 711 488
41 162 445
42 656 18
43 974 819
44 343 79
45 315 384
46 962 540
47 722 422
48 725 289
49 72 472
50 632 741
